72 81 78 8 88 39 58 25 17 56 71 33 6 20 57 2 86 66 64 18 22 0 69 35 55 93 77 41 47 26 87 53 23 5 37 89 91 9 21 31 42 76 65 49 45 59 28 54 92 40 7 11 98 60 50 82 1 63 97 27 68 95 36 83 80 38 44 79 30 13 99 84 3 70 15 4 61 16 46 24 12 74 94 67 73 48 62 32 29 75 14 43 85 34 96 19 90 51 10 52 

